5440
83
137
365
188
804
815
388
313
279
105
29
81
147
257
257
254
157
225
324
176
42
69
981
3210
1638
251
167
837
416
1315
688
1454
3166
62
51
1246
117
52
24
164
18933
52
739
154
100
1710
170
1545
972
299
783
3061
457
226
73
587
1213
1113
16888
68
0
454
482
419
236
2736
315
326
6079
236
256
245
1231
74
508
2565
3373
945
108
260
186
71
1017
1327
5646
2806
44
954
1488
35
331
963
1805
1896
0
2994
80
74
1759
